(set-logic ALL)
(declare-const k Int)
(declare-fun %B () (_ BitVec k))
(declare-fun %A () (_ BitVec k))
(assert (let ((_let_0 (ite (bvuge %A %B) %A %B))) (not (= (ite (bvuge _let_0 %B) _let_0 %B) _let_0))))
(check-sat)